r = [
0,123,113,69,74,77,47,92,38,67,7,0
];
p = [
0,12,15,3,20,10,11,29,6,27,30,0
];
e = [
0,20,9,1,1,7,5,7,14,5,7,0
];
d = [
0,169,170,94,94,105,64,121,44,119,37,178
];
d_bar = [
0,175,178,96,104,110,70,136,47,133,52,178
];
w = [
0,3.333333333,1.125,0.5,0.1,1.4,0.833333333,0.466666667,4.666666667,0.357142857,0.466666667,0
];
